k = 80;
b = 40;
AtomicConstraints =  [|
14, 1|
	14, 12|
	14, 16|
	15, 1|
	15, 12|
	15, 16|
	15, 27|
	17, 12|
	17, 16|
	17, 27|
	17, 36|
	18, 16|
	18, 27|
	18, 36|
	18, 37|
	19, 27|
	19, 36|
	19, 37|
	19, 38|
	20, 36|
	20, 37|
	20, 38|
	20, 39|
	21, 37|
	21, 38|
	21, 39|
	21, 40|
	22, 2|
	22, 38|
	22, 39|
	22, 40|
	23, 2|
	23, 3|
	23, 39|
	23, 40|
	24, 2|
	24, 3|
	24, 4|
	24, 40|
	25, 2|
	25, 3|
	25, 4|
	25, 5|
	26, 3|
	26, 4|
	26, 5|
	26, 6|
	28, 4|
	28, 5|
	28, 6|
	28, 7|
	29, 5|
	29, 6|
	29, 7|
	29, 8|
	30, 6|
	30, 7|
	30, 8|
	30, 9|
	31, 7|
	31, 8|
	31, 9|
	31, 10|
	32, 8|
	32, 9|
	32, 10|
	32, 11|
	33, 9|
	33, 10|
	33, 11|
	33, 13|
	34, 10|
	34, 11|
	34, 13|
	35, 11|
	35, 13|
	68, 57|
	68, 55|
	68, 54|
	68, 76|
	68, 67|
	68, 56|
	68, 52|
	68, 41|
	66, 55|
	66, 54|
	66, 76|
	66, 67|
	66, 56|
	66, 52|
	66, 41|
	65, 54|
	65, 76|
	65, 67|
	65, 56|
	65, 52|
	65, 41|
	47, 76|
	47, 67|
	47, 56|
	47, 52|
	47, 41|
	46, 67|
	46, 56|
	46, 52|
	46, 41|
	45, 56|
	45, 52|
	45, 41|
	44, 52|
	44, 41|
	43, 41|
	70, 57|
	70, 55|
	70, 54|
	70, 76|
	70, 67|
	70, 56|
	70, 52|
	70, 41|
	70, 59|
	70, 58|
	69, 57|
	69, 55|
	69, 54|
	69, 76|
	69, 67|
	69, 56|
	69, 52|
	69, 41|
	69, 58|
	62, 55|
	62, 54|
	62, 76|
	62, 67|
	62, 56|
	62, 52|
	62, 41|
	62, 68|
	62, 66|
	62, 65|
	62, 47|
	62, 46|
	62, 45|
	62, 44|
	62, 43|
	62, 69|
	61, 54|
	61, 76|
	61, 67|
	61, 56|
	61, 52|
	61, 41|
	61, 66|
	61, 65|
	61, 47|
	61, 46|
	61, 45|
	61, 44|
	61, 43|
	60, 76|
	60, 67|
	60, 56|
	60, 52|
	60, 41|
	60, 65|
	60, 47|
	60, 46|
	60, 45|
	60, 44|
	60, 43|
	42, 67|
	42, 56|
	42, 52|
	42, 41|
	42, 47|
	42, 46|
	42, 45|
	42, 44|
	42, 43|
	80, 56|
	80, 52|
	80, 41|
	80, 46|
	80, 45|
	80, 44|
	80, 43|
	79, 52|
	79, 41|
	79, 45|
	79, 44|
	79, 43|
	78, 41|
	78, 44|
	78, 43|
	77, 43|
	64, 57|
	64, 55|
	64, 54|
	64, 76|
	64, 67|
	64, 56|
	64, 52|
	64, 41|
	64, 59|
	64, 58|
	64, 68|
	64, 66|
	64, 65|
	64, 47|
	64, 46|
	64, 45|
	64, 44|
	64, 43|
	64, 70|
	64, 69|
	63, 57|
	63, 55|
	63, 54|
	63, 76|
	63, 67|
	63, 56|
	63, 52|
	63, 41|
	63, 68|
	63, 66|
	63, 65|
	63, 47|
	63, 46|
	63, 45|
	63, 44|
	63, 43|
	63, 70|
	63, 69|
	73, 54|
	73, 76|
	73, 67|
	73, 56|
	73, 52|
	73, 41|
	73, 68|
	73, 66|
	73, 65|
	73, 47|
	73, 46|
	73, 45|
	73, 44|
	73, 43|
	73, 62|
	73, 61|
	73, 60|
	73, 42|
	73, 80|
	73, 79|
	73, 78|
	73, 77|
	72, 76|
	72, 67|
	72, 56|
	72, 52|
	72, 41|
	72, 66|
	72, 65|
	72, 47|
	72, 46|
	72, 45|
	72, 44|
	72, 43|
	72, 61|
	72, 60|
	72, 42|
	72, 80|
	72, 79|
	72, 78|
	72, 77|
	71, 67|
	71, 56|
	71, 52|
	71, 41|
	71, 65|
	71, 47|
	71, 46|
	71, 45|
	71, 44|
	71, 43|
	71, 60|
	71, 42|
	71, 80|
	71, 79|
	71, 78|
	71, 77|
	53, 56|
	53, 52|
	53, 41|
	53, 47|
	53, 46|
	53, 45|
	53, 44|
	53, 43|
	53, 42|
	53, 80|
	53, 79|
	53, 78|
	53, 77|
	51, 52|
	51, 41|
	51, 46|
	51, 45|
	51, 44|
	51, 43|
	51, 80|
	51, 79|
	51, 78|
	51, 77|
	50, 41|
	50, 44|
	50, 43|
	50, 79|
	50, 78|
	50, 77|
	49, 43|
	49, 78|
	49, 77|
	48, 77|
	75, 57|
	75, 55|
	75, 54|
	75, 76|
	75, 67|
	75, 56|
	75, 52|
	75, 41|
	75, 68|
	75, 66|
	75, 65|
	75, 47|
	75, 46|
	75, 45|
	75, 44|
	75, 43|
	75, 70|
	75, 69|
	75, 62|
	75, 61|
	75, 60|
	75, 42|
	75, 80|
	75, 79|
	75, 78|
	75, 77|
	75, 64|
	75, 63|
	74, 55|
	74, 54|
	74, 76|
	74, 67|
	74, 56|
	74, 52|
	74, 41|
	74, 68|
	74, 66|
	74, 65|
	74, 47|
	74, 46|
	74, 45|
	74, 44|
	74, 43|
	74, 69|
	74, 62|
	74, 61|
	74, 60|
	74, 42|
	74, 80|
	74, 79|
	74, 78|
	74, 77|
	74, 63|];
DisjunctiveConstraints =  [|2, 40, 2, 3|
	3, 2, 3, 4|
	4, 3, 4, 5|
	5, 4, 5, 6|
	6, 5, 6, 7|
	7, 6, 7, 8|
	8, 7, 8, 9|
	9, 8, 9, 10|
	10, 9, 10, 11|
	11, 10, 11, 13|
	14, 41, 14, 1|
	15, 14, 15, 17|
	15, 12, 15, 52|
	12, 1, 12, 16|
	17, 15, 17, 18|
	17, 16, 17, 56|
	18, 17, 18, 19|
	18, 27, 18, 67|
	19, 18, 19, 20|
	19, 36, 19, 76|
	20, 19, 20, 21|
	20, 37, 20, 77|
	21, 20, 21, 22|
	21, 38, 21, 78|
	22, 21, 22, 23|
	22, 39, 22, 79|
	23, 22, 23, 24|
	23, 40, 23, 80|
	24, 2, 24, 42|
	24, 23, 24, 25|
	25, 3, 25, 43|
	25, 24, 25, 26|
	26, 4, 26, 44|
	26, 25, 26, 28|
	16, 12, 16, 27|
	28, 5, 28, 45|
	28, 26, 28, 29|
	29, 6, 29, 46|
	29, 28, 29, 30|
	30, 7, 30, 47|
	30, 29, 30, 31|
	31, 8, 31, 48|
	31, 30, 31, 32|
	32, 9, 32, 49|
	32, 31, 32, 33|
	33, 10, 33, 50|
	33, 32, 33, 34|
	34, 11, 34, 51|
	34, 33, 34, 35|
	35, 13, 35, 53|
	27, 16, 27, 36|
	36, 27, 36, 37|
	37, 36, 37, 38|
	38, 37, 38, 39|
	39, 38, 39, 40|
	40, 39, 40, 2|
	57, 58, 57, 55|
	55, 57, 55, 54|
	54, 55, 54, 76|
	76, 54, 76, 67|
	67, 76, 67, 56|
	56, 67, 56, 52|
	52, 56, 52, 41|
	58, 59, 58, 57|
	68, 15, 68, 55|
	68, 59, 19, 68|
	68, 69, 68, 66|
	66, 54, 66, 14|
	66, 58, 18, 66|
	66, 68, 66, 65|
	65, 36, 65, 76|
	65, 57, 17, 65|
	65, 66, 65, 47|
	47, 27, 47, 67|
	47, 55, 15, 47|
	47, 65, 47, 46|
	46, 16, 46, 56|
	46, 54, 14, 46|
	46, 47, 46, 45|
	45, 12, 45, 52|
	45, 76, 36, 45|
	45, 46, 45, 44|
	44, 67, 27, 44|
	44, 56, 16, 44|
	44, 41, 44, 1|
	44, 45, 44, 43|
	43, 56, 16, 43|
	70, 18, 70, 58|
	69, 17, 69, 57|
	69, 70, 69, 68|
	62, 26, 62, 66|
	62, 28, 62, 68|
	62, 54, 62, 14|
	62, 70, 30, 62|
	62, 63, 62, 61|
	61, 25, 61, 65|
	61, 26, 61, 66|
	61, 36, 61, 76|
	61, 69, 29, 61|
	61, 62, 61, 60|
	60, 7, 60, 47|
	60, 27, 60, 67|
	60, 59, 19, 60|
	60, 68, 28, 60|
	60, 61, 60, 42|
	42, 6, 42, 46|
	42, 7, 42, 47|
	42, 16, 42, 56|
	42, 58, 18, 42|
	42, 66, 26, 42|
	42, 60, 42, 80|
	80, 5, 80, 45|
	80, 12, 80, 52|
	80, 57, 17, 80|
	80, 65, 25, 80|
	80, 42, 80, 79|
	79, 4, 79, 44|
	79, 55, 15, 79|
	79, 41, 79, 1|
	79, 47, 7, 79|
	79, 80, 79, 78|
	78, 3, 78, 43|
	78, 54, 14, 78|
	78, 46, 6, 78|
	78, 79, 78, 77|
	77, 76, 36, 77|
	77, 45, 5, 77|
	64, 17, 64, 57|
	64, 18, 64, 58|
	64, 29, 64, 69|
	64, 30, 64, 70|
	63, 15, 63, 55|
	63, 28, 63, 68|
	63, 29, 63, 69|
	63, 64, 63, 62|
	73, 21, 73, 61|
	73, 25, 73, 65|
	73, 26, 73, 66|
	73, 36, 73, 76|
	73, 64, 24, 73|
	73, 74, 73, 72|
	72, 7, 72, 47|
	72, 20, 72, 60|
	72, 25, 72, 65|
	72, 27, 72, 67|
	72, 63, 23, 72|
	72, 73, 72, 71|
	71, 2, 71, 42|
	71, 6, 71, 46|
	71, 7, 71, 47|
	71, 12, 71, 52|
	71, 16, 71, 56|
	71, 70, 30, 71|
	71, 62, 22, 71|
	71, 72, 71, 53|
	53, 5, 53, 45|
	53, 6, 53, 46|
	53, 12, 53, 52|
	53, 40, 53, 80|
	53, 41, 53, 1|
	53, 70, 30, 53|
	53, 69, 29, 53|
	53, 61, 21, 53|
	53, 71, 53, 51|
	51, 4, 51, 44|
	51, 5, 51, 45|
	51, 39, 51, 79|
	51, 41, 51, 1|
	51, 59, 19, 51|
	51, 68, 28, 51|
	51, 60, 20, 51|
	51, 53, 51, 50|
	50, 3, 50, 43|
	50, 4, 50, 44|
	50, 38, 50, 78|
	50, 59, 19, 50|
	50, 58, 18, 50|
	50, 66, 26, 50|
	50, 42, 2, 50|
	50, 51, 50, 49|
	49, 37, 49, 77|
	49, 57, 17, 49|
	49, 58, 18, 49|
	49, 65, 25, 49|
	49, 80, 40, 49|
	49, 50, 49, 48|
	48, 57, 17, 48|
	48, 55, 15, 48|
	48, 47, 7, 48|
	48, 79, 39, 48|
	75, 15, 75, 55|
	75, 23, 75, 63|
	75, 24, 75, 64|
	75, 28, 75, 68|
	75, 29, 75, 69|
	74, 22, 74, 62|
	74, 26, 74, 66|
	74, 28, 74, 68|
	74, 54, 74, 14|
	74, 75, 74, 73|];
SoftAtomicConstraints =  [|
40, 2|
2, 3|
3, 4|
4, 5|
5, 6|
6, 7|
7, 8|
8, 9|
9, 10|
10, 11|
1, 12|
11, 13|
14, 15|
12, 16|
15, 17|
17, 18|
18, 19|
19, 20|
20, 21|
21, 22|
22, 23|
23, 24|
24, 25|
25, 26|
16, 27|
26, 28|
28, 29|
29, 30|
30, 31|
31, 32|
32, 33|
33, 34|
34, 35|
27, 36|
36, 37|
37, 38|
38, 39|
39, 40|
52, 41|
60, 42|
44, 43|
45, 44|
46, 45|
47, 46|
65, 47|
49, 48|
50, 49|
51, 50|
53, 51|
56, 52|
71, 53|
55, 54|
57, 55|
67, 56|
58, 57|
59, 58|
61, 60|
62, 61|
63, 62|
64, 63|
66, 65|
68, 66|
76, 67|
69, 68|
70, 69|
72, 71|
73, 72|
74, 73|
75, 74|
54, 76|
78, 77|
79, 78|
80, 79|
42, 80|];
DirectSuccessors =  [1,
2,
3,
4,
5,
6,
7,
8,
9,
10,
11,
12,
13,
14,
15,
16,
17,
18,
19,
20,
21,
22,
23,
24,
25,
26,
27,
28,
29,
30,
31,
32,
33,
34,
35,
36,
37,
38,
39,
40];
